50
547 125 281 431 17 499 953 429 835 961 21 14 437 960 455 798 672 46 466 644 160 133 668 301 691 278 77 375 788 349 546 774 278 867 42 451 242 171 900 167 781 472 946 886 17 952 559 727 106 719 
648 227 381 529 118 600 1051 531 933 1061 122 116 535 1059 556 898 774 144 567 743 262 232 768 401 793 380 178 474 889 451 646 872 379 969 141 549 341 269 1001 267 883 570 1047 986 115 1052 658 825 205 818 
11888
